102 110 192 21 184 172 41 22 109 167 10 16 89 88 152 69 48 169 97 138 139 166 96 104 31 93 161 125 199 155 0 49 168 174 129 80 33 148 185 37 65 7 51 137 119 179 26 23 87 178 12 180 78 146 164 40 83 136 171 68 157 183 106 133 156 79 193 77 173 64 159 85 95 151 15 62 153 14 72 38 90 53 76 42 70 187 122 121 92 3 154 43 59 52 123 117 61 34 29 143 47 1 99 191 50 118 36 195 18 135 144 116 140 91 177 54 112 86 25 162 130 147 94 150 55 20 181 132 46 27 11 114 105 103 182 81 163 113 24 19 141 9 8 101 115 4 176 2 82 39 5 17 84 58 149 63 142 188 186 13 67 32 165 44 98 30 56 71 134 160 75 126 108 124 145 45 120 189 100 194 73 111 60 170 6 197 131 66 74 158 35 128 107 198 175 196 190 28 127 57